sat
(
  (define-fun J () String
    "aaaaaaaaaaaaabaabaaab")
  (define-fun Q () String
    "")
  (define-fun G () String
    "")
  (define-fun O () String
    "aabaaabbaaaaaaaabbbaa")
  (define-fun M () String
    "")
  (define-fun H () String
    "")
  (define-fun K () String
    "")
  (define-fun N () String
    "aaaaaaaaaaaaaaaa")
)
